NAME : Synth-n11-k2-s0
COMMENT : Synthetic small hard CVRP instance for quantum simulation
TYPE : CVRP
DIMENSION : 11
EDGE_WEIGHT_TYPE : EUC_2D
CAPACITY : 26
NODE_COORD_SECTION
1 50.000000 50.000000
2 39.889813 66.040254
3 29.884113 65.172820
4 15.472268 39.966574
5 36.711894 39.486255
6 46.372120 25.198848
7 58.777689 20.777372
8 64.943371 43.924711
9 75.109934 48.075036
10 72.489345 76.317236
11 54.688551 67.178876
DEMAND_SECTION
1 0
2 2
3 4
4 3
5 5
6 4
7 7
8 3
9 6
10 5
11 5
DEPOT_SECTION
1
-1
EOF
